words_train/words_482_SAT.qaiger
aag 87 24 0 1 63
36
44
42
46
40
18
28
26
30
2
8
32
20
4
14
34
38
6
22
10
48
24
12
16
174
50 37 35
52 50 39
54 52 41
56 54 43
58 56 45
60 58 47
62 59 46
64 63 61
66 23 14
68 22 15
70 69 67
72 70 64
74 71 65
76 57 44
78 77 59
80 21 12
82 20 13
84 83 81
86 84 78
88 53 40
90 89 55
92 90 9
94 55 42
96 95 57
98 19 10
100 18 11
102 101 99
104 102 96
106 91 8
108 51 38
110 109 53
112 111 6
114 110 7
116 37 4
118 35 3
120 118 117
122 36 4
124 123 51
126 125 121
128 126 115
130 129 113
132 130 107
134 133 105
136 134 93
138 103 97
140 85 79
142 141 139
144 142 137
146 145 87
148 147 75
150 149 73
152 48 25
154 49 24
156 155 153
158 157 16
160 156 17
162 161 159
164 162 60
166 163 61
168 167 165
170 168 150
172 169 151
174 173 171
i0 1 x[1]
i1 1 x[5]
i2 1 x[4]
i3 1 x[6]
i4 1 x[3]
i5 2 z[0]
i6 2 z[5]
i7 2 z[4]
i8 2 z[6]
i9 2 y[0]
i10 2 y[3]
i11 2 z[7]
i12 2 z[1]
i13 2 y[1]
i14 2 y[6]
i15 1 x[0]
i16 1 x[2]
i17 2 y[2]
i18 2 z[2]
i19 2 y[4]
i20 1 x[7]
i21 2 z[3]
i22 2 y[5]
i23 2 y[7]
o0 bv[0]
c
simplified
  <
    xor
      2 y
      << 4
        2 z
    subtract
      abs
        1
      1 x
