words_train/words_482_SAT.qaiger.qdimacs
p cnf 87 190
a 17 18 19 20 21 22 23 24 0
e 1 2 3 4 5 6 7 8 9 10 11 12 13 14 15 16 25 26 27 28 29 30 31 32 33 34 35 36 37 38 39 40 41 42 43 44 45 46 47 48 49 50 51 52 53 54 55 56 57 58 59 60 61 62 63 64 65 66 67 68 69 70 71 72 73 74 75 76 77 78 79 80 81 82 83 84 85 86 87 0
18 17 25 0
-18 -25 0
-17 -25 0
-25 19 26 0
25 -26 0
-19 -26 0
-26 20 27 0
26 -27 0
-20 -27 0
-27 21 28 0
27 -28 0
-21 -28 0
-28 22 29 0
28 -29 0
-22 -29 0
-29 23 30 0
29 -30 0
-23 -30 0
29 -23 31 0
-29 -31 0
23 -31 0
31 30 32 0
-31 -32 0
-30 -32 0
11 -7 33 0
-11 -33 0
7 -33 0
-11 7 34 0
11 -34 0
-7 -34 0
34 33 35 0
-34 -35 0
-33 -35 0
-35 -32 36 0
35 -36 0
32 -36 0
35 32 37 0
-35 -37 0
-32 -37 0
28 -22 38 0
-28 -38 0
22 -38 0
38 29 39 0
-38 -39 0
-29 -39 0
10 -6 40 0
-10 -40 0
6 -40 0
-10 6 41 0
10 -41 0
-6 -41 0
41 40 42 0
-41 -42 0
-40 -42 0
-42 -39 43 0
42 -43 0
39 -43 0
26 -20 44 0
-26 -44 0
20 -44 0
44 27 45 0
-44 -45 0
-27 -45 0
-45 4 46 0
45 -46 0
-4 -46 0
27 -21 47 0
-27 -47 0
21 -47 0
47 28 48 0
-47 -48 0
-28 -48 0
9 -5 49 0
-9 -49 0
5 -49 0
-9 5 50 0
9 -50 0
-5 -50 0
50 49 51 0
-50 -51 0
-49 -51 0
-51 -48 52 0
51 -52 0
48 -52 0
45 -4 53 0
-45 -53 0
4 -53 0
25 -19 54 0
-25 -54 0
19 -54 0
54 26 55 0
-54 -55 0
-26 -55 0
55 -3 56 0
-55 -56 0
3 -56 0
-55 3 57 0
55 -57 0
-3 -57 0
18 -2 58 0
-18 -58 0
2 -58 0
17 1 59 0
-17 -59 0
-1 -59 0
-59 58 60 0
59 -60 0
-58 -60 0
-18 -2 61 0
18 -61 0
2 -61 0
61 25 62 0
-61 -62 0
-25 -62 0
62 60 63 0
-62 -63 0
-60 -63 0
-63 57 64 0
63 -64 0
-57 -64 0
64 56 65 0
-64 -65 0
-56 -65 0
-65 53 66 0
65 -66 0
-53 -66 0
66 52 67 0
-66 -67 0
-52 -67 0
-67 46 68 0
67 -68 0
-46 -68 0
51 48 69 0
-51 -69 0
-48 -69 0
42 39 70 0
-42 -70 0
-39 -70 0
70 69 71 0
-70 -71 0
-69 -71 0
-71 68 72 0
71 -72 0
-68 -72 0
72 43 73 0
-72 -73 0
-43 -73 0
73 37 74 0
-73 -74 0
-37 -74 0
74 36 75 0
-74 -75 0
-36 -75 0
-24 12 76 0
24 -76 0
-12 -76 0
24 -12 77 0
-24 -77 0
12 -77 0
77 76 78 0
-77 -78 0
-76 -78 0
78 -8 79 0
-78 -79 0
8 -79 0
-78 8 80 0
78 -80 0
-8 -80 0
80 79 81 0
-80 -81 0
-79 -81 0
-81 -30 82 0
81 -82 0
30 -82 0
81 30 83 0
-81 -83 0
-30 -83 0
83 82 84 0
-83 -84 0
-82 -84 0
-84 -75 85 0
84 -85 0
75 -85 0
84 75 86 0
-84 -86 0
-75 -86 0
86 85 87 0
-86 -87 0
-85 -87 0
87 0
